97 11 71 50 38 57 14 36 84 22 48 51 35 15 7 98 78 32 74 63 31 9 60 96 27 3 2 65 4 1 23 80 58 75 49 70 46 25 29 37 76 73 44 20 10 8 66 90 99 55 33 86 59 42 12 40 93 61 67 16 82 77 30 6 21 13 19 54 79 47 43 5 92 91 64 52 83 94 34 26 69 85 72 45 28 89 18 53 0 88 87 81 68 56 39 62 41 24 95 17 

